Square/square_4.lp
Minimize
x32 + x33 + x34 + x35 + x36 + x37 + x38 + x39 + x40 + x41 + x42 + x43 + x44 + x45 + x46 + x47 + x48 + x49 + x50 + x51 + x52 + x53 + x54 + x55 + x56 + x57 + x58 + x59 + x60 + x61 + x62 + x63 + x64 + x65 + x66 + x67 + x68 + x69 + x70 + x71 + x72 + x73 + x74 + x75 + x76 + x77 + x78 + x79 + x80 + x81 + x82 + x83 + x84 + x85 + x86 + x87 + x88 + x89 + x90 + x91 + x92 + x93 + x94 + x95 + 
Subject To
\\GaloisMulti^{-1}
x0 + x1 + x2 + x3 + x16 + x17 + x18 + x19 - 5 d0 >= 0
d0 - x0 >= 0
d0 - x1 >= 0
d0 - x2 >= 0
d0 - x3 >= 0
d0 - x16 >= 0
d0 - x17 >= 0
d0 - x18 >= 0
d0 - x19 >= 0
\\GaloisMulti^{-1}
x4 + x5 + x6 + x7 + x20 + x21 + x22 + x23 - 5 d1 >= 0
d1 - x4 >= 0
d1 - x5 >= 0
d1 - x6 >= 0
d1 - x7 >= 0
d1 - x20 >= 0
d1 - x21 >= 0
d1 - x22 >= 0
d1 - x23 >= 0
\\GaloisMulti^{-1}
x8 + x9 + x10 + x11 + x24 + x25 + x26 + x27 - 5 d2 >= 0
d2 - x8 >= 0
d2 - x9 >= 0
d2 - x10 >= 0
d2 - x11 >= 0
d2 - x24 >= 0
d2 - x25 >= 0
d2 - x26 >= 0
d2 - x27 >= 0
\\GaloisMulti^{-1}
x12 + x13 + x14 + x15 + x28 + x29 + x30 + x31 - 5 d3 >= 0
d3 - x12 >= 0
d3 - x13 >= 0
d3 - x14 >= 0
d3 - x15 >= 0
d3 - x28 >= 0
d3 - x29 >= 0
d3 - x30 >= 0
d3 - x31 >= 0
\\GaloisMulti
x16 + x17 + x18 + x19 + x32 + x33 + x34 + x35 - 5 d4 >= 0
d4 - x16 >= 0
d4 - x17 >= 0
d4 - x18 >= 0
d4 - x19 >= 0
d4 - x32 >= 0
d4 - x33 >= 0
d4 - x34 >= 0
d4 - x35 >= 0
\\GaloisMulti
x20 + x21 + x22 + x23 + x36 + x37 + x38 + x39 - 5 d5 >= 0
d5 - x20 >= 0
d5 - x21 >= 0
d5 - x22 >= 0
d5 - x23 >= 0
d5 - x36 >= 0
d5 - x37 >= 0
d5 - x38 >= 0
d5 - x39 >= 0
\\GaloisMulti
x24 + x25 + x26 + x27 + x40 + x41 + x42 + x43 - 5 d6 >= 0
d6 - x24 >= 0
d6 - x25 >= 0
d6 - x26 >= 0
d6 - x27 >= 0
d6 - x40 >= 0
d6 - x41 >= 0
d6 - x42 >= 0
d6 - x43 >= 0
\\GaloisMulti
x28 + x29 + x30 + x31 + x44 + x45 + x46 + x47 - 5 d7 >= 0
d7 - x28 >= 0
d7 - x29 >= 0
d7 - x30 >= 0
d7 - x31 >= 0
d7 - x44 >= 0
d7 - x45 >= 0
d7 - x46 >= 0
d7 - x47 >= 0
\\SBOX
\\SBOX
\\SBOX
\\SBOX
\\SBOX
\\SBOX
\\SBOX
\\SBOX
\\SBOX
\\SBOX
\\SBOX
\\SBOX
\\SBOX
\\SBOX
\\SBOX
\\SBOX
\\Identity
\\Identity
\\Identity
\\Identity
\\Identity
\\Identity
\\Identity
\\Identity
\\Identity
\\Identity
\\Identity
\\Identity
\\Identity
\\Identity
\\Identity
\\Identity
\\GaloisMulti
x32 + x36 + x40 + x44 + x48 + x49 + x50 + x51 - 5 d8 >= 0
d8 - x32 >= 0
d8 - x36 >= 0
d8 - x40 >= 0
d8 - x44 >= 0
d8 - x48 >= 0
d8 - x49 >= 0
d8 - x50 >= 0
d8 - x51 >= 0
\\GaloisMulti
x37 + x41 + x45 + x33 + x52 + x53 + x54 + x55 - 5 d9 >= 0
d9 - x37 >= 0
d9 - x41 >= 0
d9 - x45 >= 0
d9 - x33 >= 0
d9 - x52 >= 0
d9 - x53 >= 0
d9 - x54 >= 0
d9 - x55 >= 0
\\GaloisMulti
x42 + x46 + x34 + x38 + x56 + x57 + x58 + x59 - 5 d10 >= 0
d10 - x42 >= 0
d10 - x46 >= 0
d10 - x34 >= 0
d10 - x38 >= 0
d10 - x56 >= 0
d10 - x57 >= 0
d10 - x58 >= 0
d10 - x59 >= 0
\\GaloisMulti
x47 + x35 + x39 + x43 + x60 + x61 + x62 + x63 - 5 d11 >= 0
d11 - x47 >= 0
d11 - x35 >= 0
d11 - x39 >= 0
d11 - x43 >= 0
d11 - x60 >= 0
d11 - x61 >= 0
d11 - x62 >= 0
d11 - x63 >= 0
\\SBOX
\\SBOX
\\SBOX
\\SBOX
\\SBOX
\\SBOX
\\SBOX
\\SBOX
\\SBOX
\\SBOX
\\SBOX
\\SBOX
\\SBOX
\\SBOX
\\SBOX
\\SBOX
\\Identity
\\Identity
\\Identity
\\Identity
\\Identity
\\Identity
\\Identity
\\Identity
\\Identity
\\Identity
\\Identity
\\Identity
\\Identity
\\Identity
\\Identity
\\Identity
\\GaloisMulti
x48 + x52 + x56 + x60 + x64 + x65 + x66 + x67 - 5 d12 >= 0
d12 - x48 >= 0
d12 - x52 >= 0
d12 - x56 >= 0
d12 - x60 >= 0
d12 - x64 >= 0
d12 - x65 >= 0
d12 - x66 >= 0
d12 - x67 >= 0
\\GaloisMulti
x53 + x57 + x61 + x49 + x68 + x69 + x70 + x71 - 5 d13 >= 0
d13 - x53 >= 0
d13 - x57 >= 0
d13 - x61 >= 0
d13 - x49 >= 0
d13 - x68 >= 0
d13 - x69 >= 0
d13 - x70 >= 0
d13 - x71 >= 0
\\GaloisMulti
x58 + x62 + x50 + x54 + x72 + x73 + x74 + x75 - 5 d14 >= 0
d14 - x58 >= 0
d14 - x62 >= 0
d14 - x50 >= 0
d14 - x54 >= 0
d14 - x72 >= 0
d14 - x73 >= 0
d14 - x74 >= 0
d14 - x75 >= 0
\\GaloisMulti
x63 + x51 + x55 + x59 + x76 + x77 + x78 + x79 - 5 d15 >= 0
d15 - x63 >= 0
d15 - x51 >= 0
d15 - x55 >= 0
d15 - x59 >= 0
d15 - x76 >= 0
d15 - x77 >= 0
d15 - x78 >= 0
d15 - x79 >= 0
\\SBOX
\\SBOX
\\SBOX
\\SBOX
\\SBOX
\\SBOX
\\SBOX
\\SBOX
\\SBOX
\\SBOX
\\SBOX
\\SBOX
\\SBOX
\\SBOX
\\SBOX
\\SBOX
\\Identity
\\Identity
\\Identity
\\Identity
\\Identity
\\Identity
\\Identity
\\Identity
\\Identity
\\Identity
\\Identity
\\Identity
\\Identity
\\Identity
\\Identity
\\Identity
\\GaloisMulti
x64 + x68 + x72 + x76 + x80 + x81 + x82 + x83 - 5 d16 >= 0
d16 - x64 >= 0
d16 - x68 >= 0
d16 - x72 >= 0
d16 - x76 >= 0
d16 - x80 >= 0
d16 - x81 >= 0
d16 - x82 >= 0
d16 - x83 >= 0
\\GaloisMulti
x69 + x73 + x77 + x65 + x84 + x85 + x86 + x87 - 5 d17 >= 0
d17 - x69 >= 0
d17 - x73 >= 0
d17 - x77 >= 0
d17 - x65 >= 0
d17 - x84 >= 0
d17 - x85 >= 0
d17 - x86 >= 0
d17 - x87 >= 0
\\GaloisMulti
x74 + x78 + x66 + x70 + x88 + x89 + x90 + x91 - 5 d18 >= 0
d18 - x74 >= 0
d18 - x78 >= 0
d18 - x66 >= 0
d18 - x70 >= 0
d18 - x88 >= 0
d18 - x89 >= 0
d18 - x90 >= 0
d18 - x91 >= 0
\\GaloisMulti
x79 + x67 + x71 + x75 + x92 + x93 + x94 + x95 - 5 d19 >= 0
d19 - x79 >= 0
d19 - x67 >= 0
d19 - x71 >= 0
d19 - x75 >= 0
d19 - x92 >= 0
d19 - x93 >= 0
d19 - x94 >= 0
d19 - x95 >= 0
\\SBOX
\\SBOX
\\SBOX
\\SBOX
\\SBOX
\\SBOX
\\SBOX
\\SBOX
\\SBOX
\\SBOX
\\SBOX
\\SBOX
\\SBOX
\\SBOX
\\SBOX
\\SBOX
\\Identity
\\Identity
\\Identity
\\Identity
\\Identity
\\Identity
\\Identity
\\Identity
\\Identity
\\Identity
\\Identity
\\Identity
\\Identity
\\Identity
\\Identity
\\Identity
x0 + x1 + x2 + x3 + x4 + x5 + x6 + x7 + x8 + x9 + x10 + x11 + x12 + x13 + x14 + x15 >= 1

Binary
d0
d1
d2
d3
d4
d5
d6
d7
d8
d9
d10
d11
d12
d13
d14
d15
d16
d17
d18
d19
x0
x1
x2
x3
x4
x5
x6
x7
x8
x9
x10
x11
x12
x13
x14
x15
x16
x17
x18
x19
x20
x21
x22
x23
x24
x25
x26
x27
x28
x29
x30
x31
x32
x33
x34
x35
x36
x37
x38
x39
x40
x41
x42
x43
x44
x45
x46
x47
x48
x49
x50
x51
x52
x53
x54
x55
x56
x57
x58
x59
x60
x61
x62
x63
x64
x65
x66
x67
x68
x69
x70
x71
x72
x73
x74
x75
x76
x77
x78
x79
x80
x81
x82
x83
x84
x85
x86
x87
x88
x89
x90
x91
x92
x93
x94
x95
End